40 40
20
3 3 25 28
3 4 25 8
3 5 37 7
3 6 25 22
3 7 37 0
3 8 25 0
3 9 25 31
3 10 25 12
3 12 37 28
3 16 37 12
3 40 0 0
4 4 28 22
4 14 28 26
4 22 28 0
5 3 32 4
5 4 32 0
5 8 32 7
5 12 32 15
5 13 32 27
22 40 3 0
